data/solutions/recovery/degenerate/intermediate/binding/degenerate_intermediate_instance23/23.sol
Elapsed time: 0.04
Upper bound: 235535343.0
Planning weighted value: 9.00487931239e+11
C[0]=235535343.0
C[1]=234975082.0
C[2]=234575938.0
C[3]=233892365.0
C[4]=231747864.0
C[5]=230360234.0
C[6]=228283989.0
C[7]=219762629.0
C[8]=212023626.0
C[9]=211412645.0
C[10]=209836185.0
C[11]=0.0
y[0]=2
y[1]=10
y[2]=6
y[3]=8
y[4]=5
y[5]=10
y[6]=3
y[7]=1
y[8]=2
y[9]=0
y[10]=2
y[11]=6
y[12]=7
y[13]=4
y[14]=5
y[15]=3
y[16]=5
y[17]=0
y[18]=10
y[19]=3
y[20]=1
y[21]=2
y[22]=5
y[23]=2
y[24]=6
y[25]=5
y[26]=6
y[27]=4
y[28]=1
y[29]=6
y[30]=8
y[31]=7
y[32]=10
y[33]=3
y[34]=3
y[35]=1
y[36]=6
y[37]=8
y[38]=7
y[39]=2
y[40]=0
y[41]=2
y[42]=8
y[43]=10
y[44]=3
y[45]=9
y[46]=2
y[47]=5
y[48]=4
y[49]=4
y[50]=7
y[51]=0
y[52]=0
y[53]=9
y[54]=8
y[55]=7
y[56]=9
y[57]=1
y[58]=7
y[59]=8
y[60]=9
y[61]=7
y[62]=4
y[63]=4
y[64]=0
y[65]=4
y[66]=5
y[67]=0
y[68]=9
y[69]=5
y[70]=0
y[71]=2
y[72]=10
y[73]=3
y[74]=7
y[75]=2
y[76]=3
y[77]=0
